63 64 90 32 70 
27 69 30 51 20 
31 88 7 
59 99 94 
95 98 61 85 96 
28 29 78 34 35 77 
82 19 49 48 
40 53 26 
45 83 84 17 
62 11 10 
36 47 8 46 60 89 
65 71 9 66 1 
33 81 50 
39 23 67 56 4 
76 79 3 68 
92 42 15 87 57 97 13 
14 44 38 43 91 100 
2 21 73 41 74 58 
72 75 22 55 25 
5 16 86 37 93 
12 54 24 80 
52 18 6 
